20 95
1 4
1 7
1 8
1 9
1 12
1 13
1 14
1 15
1 20
2 6
2 7
2 10
2 11
2 14
2 16
2 17
2 20
3 6
3 7
3 9
3 11
3 14
3 15
3 16
3 17
3 18
3 19
4 9
4 10
4 12
4 13
4 14
4 16
4 18
4 20
5 6
5 7
5 8
5 13
5 15
5 16
5 17
5 18
5 20
6 7
6 8
6 10
6 12
6 13
6 17
6 20
7 9
7 10
7 12
7 13
7 14
7 15
7 16
7 19
8 10
8 13
8 17
8 18
8 20
9 10
9 15
9 16
9 17
9 19
10 14
10 17
10 18
10 19
11 12
11 15
11 17
11 19
12 14
12 19
13 14
13 16
13 18
13 19
14 16
14 17
14 18
14 19
14 20
15 19
15 20
16 17
16 18
17 20
18 19
18 20
